decision_x1=[0,7];
decision_x2=[0,7];
decision_x3=[0,7];
decision_x4=[0,7];
decision_x5=[0,7];
decision_x6=[0,7];
decision_x7=[0,7];
decision_x8=[0,7];
decision_x9=[0,7];
decision_x10=[0,7];
decision_x11=[0,7];
decision_x12=[0,7];
decision_x13=[0,7];
decision_x14=[0,7];
random_y1=[0,7];
random_y2=[0,7];
random_y3=[0,7];
random_y4=[0,7];
random_y5=[0,7];
random_y6=[0,7];
constraint_x2_x1=[
0,0,7.8|
0,1,1.9|
0,2,8.2|
0,3,9.5|
0,4,1.7|
0,5,6.2|
0,6,9.8|
0,7,7.1|
1,0,1.9|
1,1,4.8|
1,2,7.8|
1,3,6.5|
1,4,3.4|
1,5,4.5|
1,6,6.3|
1,7,1.6|
2,0,7.6|
2,1,8.5|
2,2,4.2|
2,3,7|
2,4,3.1|
2,5,9.3|
2,6,2.3|
2,7,9.4|
3,0,6|
3,1,2.4|
3,2,7.9|
3,3,0.55|
3,4,3.9|
3,5,6.8|
3,6,5.8|
3,7,9.6|
4,0,9.1|
4,1,2.4|
4,2,6.2|
4,3,0.6|
4,4,9|
4,5,6.8|
4,6,1.5|
4,7,9.9|
5,0,3.2|
5,1,3.7|
5,2,1.8|
5,3,6|
5,4,7.2|
5,5,1.6|
5,6,1.1|
5,7,1.6|
6,0,2.9|
6,1,4|
6,2,0.19|
6,3,0.019|
6,4,9.7|
6,5,9.5|
6,6,3.8|
6,7,0.97|
7,0,1.6|
7,1,3.1|
7,2,7.1|
7,3,7.3|
7,4,8.3|
7,5,8|
7,6,8.4|
7,7,7.1|
];
constraint_x3_x2=[
0,0,0.4|
0,1,8.9|
0,2,9.4|
0,3,7.6|
0,4,5.5|
0,5,8.1|
0,6,9.5|
0,7,9.8|
1,0,5.8|
1,1,2.1|
1,2,9.1|
1,3,2.9|
1,4,0.44|
1,5,9.3|
1,6,1|
1,7,7.1|
2,0,5|
2,1,2.7|
2,2,5.4|
2,3,2.2|
2,4,2.1|
2,5,4.9|
2,6,1.1|
2,7,8.8|
3,0,3.8|
3,1,9|
3,2,5.5|
3,3,8.9|
3,4,0.46|
3,5,4.6|
3,6,2.8|
3,7,4.7|
4,0,4.7|
4,1,3.7|
4,2,3.4|
4,3,5.5|
4,4,4.7|
4,5,1.4|
4,6,1.7|
4,7,1.6|
5,0,5.6|
5,1,5|
5,2,1.2|
5,3,0.9|
5,4,3.2|
5,5,2|
5,6,5.9|
5,7,4.3|
6,0,3.9|
6,1,6.1|
6,2,7.1|
6,3,8.1|
6,4,7|
6,5,9.6|
6,6,9|
6,7,3.3|
7,0,3.6|
7,1,8.6|
7,2,5.6|
7,3,1.4|
7,4,3.8|
7,5,2.1|
7,6,1.2|
7,7,0.36|
];
constraint_x4_x3=[
0,0,1.5|
0,1,4.3|
0,2,5.1|
0,3,1.3|
0,4,0.82|
0,5,4.3|
0,6,9.9|
0,7,7.6|
1,0,5.7|
1,1,0.8|
1,2,2.6|
1,3,4.4|
1,4,6.9|
1,5,1.1|
1,6,2.2|
1,7,1.4|
2,0,4.7|
2,1,2.6|
2,2,9.4|
2,3,6.4|
2,4,4.6|
2,5,6.2|
2,6,2.6|
2,7,2.3|
3,0,6.1|
3,1,5.5|
3,2,6.4|
3,3,1.3|
3,4,4.5|
3,5,6.3|
3,6,0.29|
3,7,1.2|
4,0,7.3|
4,1,4.8|
4,2,8.3|
4,3,5.3|
4,4,4.8|
4,5,8.7|
4,6,9.4|
4,7,8.5|
5,0,2.1|
5,1,9.1|
5,2,5.3|
5,3,0.15|
5,4,5|
5,5,0.28|
5,6,1.7|
5,7,5.5|
6,0,5|
6,1,9.5|
6,2,6.9|
6,3,7.6|
6,4,7.9|
6,5,5.5|
6,6,3|
6,7,3.5|
7,0,9.9|
7,1,0.1|
7,2,2.3|
7,3,2.4|
7,4,1.9|
7,5,1.8|
7,6,7|
7,7,0.84|
];
constraint_x5_x1=[
0,0,5.6|
0,1,9.2|
0,2,3.3|
0,3,3.9|
0,4,5.5|
0,5,4.4|
0,6,4.4|
0,7,4.4|
1,0,5|
1,1,3|
1,2,8.4|
1,3,8.6|
1,4,2.4|
1,5,9.9|
1,6,5.2|
1,7,0.45|
2,0,4.1|
2,1,9.2|
2,2,7.5|
2,3,0.2|
2,4,3.1|
2,5,5.3|
2,6,8.1|
2,7,4.5|
3,0,3.9|
3,1,6.2|
3,2,4.6|
3,3,5.9|
3,4,9.7|
3,5,4.6|
3,6,1.3|
3,7,2.2|
4,0,4.8|
4,1,9.7|
4,2,2.4|
4,3,5.4|
4,4,8.7|
4,5,0.73|
4,6,5.8|
4,7,5.1|
5,0,3.9|
5,1,4.6|
5,2,8|
5,3,4.7|
5,4,7.8|
5,5,0.044|
5,6,3.4|
5,7,8.7|
6,0,8|
6,1,1.9|
6,2,9.2|
6,3,6.3|
6,4,8.8|
6,5,5.4|
6,6,0.63|
6,7,5.9|
7,0,5.4|
7,1,3.5|
7,2,7.9|
7,3,8.1|
7,4,8.9|
7,5,8.2|
7,6,4.6|
7,7,9.9|
];
constraint_x6_x2=[
0,0,7.8|
0,1,1.7|
0,2,0.75|
0,3,9|
0,4,5.8|
0,5,8.4|
0,6,7.2|
0,7,7.1|
1,0,7.5|
1,1,2.9|
1,2,5|
1,3,8.8|
1,4,2.3|
1,5,7.7|
1,6,6.3|
1,7,4.5|
2,0,5|
2,1,9.5|
2,2,6.7|
2,3,0.61|
2,4,8.5|
2,5,0.17|
2,6,7.2|
2,7,2.5|
3,0,6.4|
3,1,5.4|
3,2,1.1|
3,3,1.9|
3,4,4.1|
3,5,1.3|
3,6,2.7|
3,7,3.5|
4,0,1.2|
4,1,2.1|
4,2,0.71|
4,3,1.8|
4,4,0.0048|
4,5,7.3|
4,6,5.8|
4,7,2.3|
5,0,1.9|
5,1,3.7|
5,2,9.5|
5,3,0.72|
5,4,4.6|
5,5,4.1|
5,6,0.97|
5,7,3.3|
6,0,1.4|
6,1,3.1|
6,2,2.8|
6,3,2.4|
6,4,4.1|
6,5,6.9|
6,6,2.5|
6,7,1|
7,0,9.7|
7,1,1.8|
7,2,6.4|
7,3,2.1|
7,4,9.4|
7,5,7.7|
7,6,6.7|
7,7,6.3|
];
constraint_x6_x5=[
0,0,2.7|
0,1,6.4|
0,2,4.8|
0,3,7.5|
0,4,0.0082|
0,5,9.9|
0,6,6.2|
0,7,9|
1,0,5.7|
1,1,5|
1,2,0.53|
1,3,5.8|
1,4,8.9|
1,5,4.2|
1,6,1|
1,7,1.3|
2,0,8.4|
2,1,3.7|
2,2,5.3|
2,3,1.4|
2,4,10|
2,5,4.5|
2,6,9.1|
2,7,1.1|
3,0,5.1|
3,1,6.2|
3,2,6.2|
3,3,8.8|
3,4,9.2|
3,5,8.8|
3,6,2.9|
3,7,8.8|
4,0,7.8|
4,1,2.5|
4,2,8.8|
4,3,8.5|
4,4,1.2|
4,5,9.6|
4,6,5.2|
4,7,3.3|
5,0,8.1|
5,1,4.8|
5,2,2.9|
5,3,2.6|
5,4,5.9|
5,5,6.4|
5,6,8.9|
5,7,2.7|
6,0,2.5|
6,1,7.3|
6,2,1.6|
6,3,4.4|
6,4,7.4|
6,5,0.86|
6,6,0.028|
6,7,0.048|
7,0,3.5|
7,1,7.6|
7,2,3.7|
7,3,8.6|
7,4,2.9|
7,5,4.6|
7,6,4.3|
7,7,3.6|
];
constraint_x7_x3=[
0,0,4.1|
0,1,5.9|
0,2,2.8|
0,3,5.1|
0,4,2.1|
0,5,2.9|
0,6,1.3|
0,7,2.3|
1,0,6|
1,1,3.5|
1,2,8.6|
1,3,4.2|
1,4,1|
1,5,7|
1,6,4.9|
1,7,6.4|
2,0,1.1|
2,1,5.9|
2,2,6.8|
2,3,6.5|
2,4,7.1|
2,5,8.3|
2,6,5.4|
2,7,3.3|
3,0,2.8|
3,1,8.8|
3,2,3.6|
3,3,3.4|
3,4,2.8|
3,5,8.3|
3,6,0.9|
3,7,2.2|
4,0,0.4|
4,1,5.3|
4,2,7|
4,3,3.2|
4,4,2.1|
4,5,0.58|
4,6,9.1|
4,7,4.1|
5,0,1.3|
5,1,6.7|
5,2,5.2|
5,3,0.14|
5,4,8.2|
5,5,9.9|
5,6,8|
5,7,5.9|
6,0,3.6|
6,1,1.8|
6,2,3.6|
6,3,2.7|
6,4,1.8|
6,5,4.1|
6,6,7.9|
6,7,8.2|
7,0,9.4|
7,1,5.9|
7,2,4.8|
7,3,7.3|
7,4,6.2|
7,5,5.7|
7,6,4.4|
7,7,7.8|
];
constraint_x7_x6=[
0,0,5.9|
0,1,5.4|
0,2,5|
0,3,0.21|
0,4,7.4|
0,5,7.3|
0,6,2.6|
0,7,6.9|
1,0,0.64|
1,1,1.2|
1,2,9.2|
1,3,1.5|
1,4,2.6|
1,5,0.27|
1,6,1|
1,7,8.5|
2,0,2.6|
2,1,8|
2,2,6.3|
2,3,0.88|
2,4,5.2|
2,5,6.2|
2,6,5.1|
2,7,7.8|
3,0,1|
3,1,3.2|
3,2,7|
3,3,4.5|
3,4,7.6|
3,5,7.8|
3,6,5.8|
3,7,4.3|
4,0,1.8|
4,1,9.1|
4,2,6.2|
4,3,5.1|
4,4,9|
4,5,9.3|
4,6,5.6|
4,7,2.9|
5,0,5.9|
5,1,7.5|
5,2,8.7|
5,3,8.4|
5,4,5.7|
5,5,0.17|
5,6,2.4|
5,7,5.4|
6,0,7.4|
6,1,0.055|
6,2,5.6|
6,3,1.9|
6,4,0.14|
6,5,2.1|
6,6,2.4|
6,7,5|
7,0,6.4|
7,1,4.1|
7,2,3.3|
7,3,2.6|
7,4,1.3|
7,5,4.9|
7,6,0.44|
7,7,4.2|
];
constraint_x8_x4=[
0,0,5.6|
0,1,6.2|
0,2,9.1|
0,3,9.4|
0,4,4.2|
0,5,2|
0,6,5.2|
0,7,6.5|
1,0,8.1|
1,1,5.1|
1,2,4.9|
1,3,6.6|
1,4,2.8|
1,5,3.4|
1,6,0.67|
1,7,0.28|
2,0,0.35|
2,1,5.6|
2,2,6.7|
2,3,0.064|
2,4,5.8|
2,5,6.4|
2,6,2|
2,7,5.7|
3,0,9.7|
3,1,3.9|
3,2,9.2|
3,3,5.2|
3,4,6.9|
3,5,4.4|
3,6,9.8|
3,7,1.9|
4,0,6.6|
4,1,2.9|
4,2,1.1|
4,3,5.2|
4,4,0.58|
4,5,7.9|
4,6,1.7|
4,7,5.9|
5,0,5.8|
5,1,4.3|
5,2,7.3|
5,3,0.27|
5,4,1.3|
5,5,6.2|
5,6,5.4|
5,7,9.6|
6,0,9.7|
6,1,8.9|
6,2,7.2|
6,3,3.9|
6,4,5.5|
6,5,4.8|
6,6,6.5|
6,7,4.1|
7,0,7.5|
7,1,5.1|
7,2,8.8|
7,3,8.1|
7,4,7|
7,5,0.6|
7,6,9.8|
7,7,6.7|
];
constraint_x8_x7=[
0,0,0.72|
0,1,1.4|
0,2,1.4|
0,3,8.2|
0,4,3.7|
0,5,2.6|
0,6,9.9|
0,7,7.9|
1,0,2.7|
1,1,7|
1,2,7.5|
1,3,3.7|
1,4,4.3|
1,5,2.7|
1,6,4.1|
1,7,6.7|
2,0,9.4|
2,1,3.9|
2,2,2.4|
2,3,4.8|
2,4,1.1|
2,5,8.6|
2,6,8.8|
2,7,3.5|
3,0,2.3|
3,1,3.6|
3,2,4.3|
3,3,0.13|
3,4,7.6|
3,5,9.7|
3,6,4.1|
3,7,4.5|
4,0,8.3|
4,1,8.5|
4,2,4.2|
4,3,9.6|
4,4,7.4|
4,5,7.4|
4,6,7.7|
4,7,7.1|
5,0,9.7|
5,1,5.7|
5,2,7.5|
5,3,4.9|
5,4,7.6|
5,5,7|
5,6,9.7|
5,7,1.3|
6,0,9.3|
6,1,4.5|
6,2,9.5|
6,3,3.2|
6,4,9.5|
6,5,0.25|
6,6,0.77|
6,7,2|
7,0,4.7|
7,1,1.8|
7,2,9.9|
7,3,1.4|
7,4,5.3|
7,5,4.2|
7,6,4.2|
7,7,5.8|
];
constraint_x9_x5=[
0,0,4.6|
0,1,9.8|
0,2,7.8|
0,3,2.8|
0,4,8.9|
0,5,7.9|
0,6,0.023|
0,7,2.7|
1,0,5.1|
1,1,0.17|
1,2,0.16|
1,3,0.72|
1,4,4.4|
1,5,4.1|
1,6,0.7|
1,7,7.3|
2,0,9.5|
2,1,6.6|
2,2,7.2|
2,3,4.3|
2,4,3.6|
2,5,5.9|
2,6,4.7|
2,7,8.2|
3,0,4.3|
3,1,2.6|
3,2,7.9|
3,3,7.4|
3,4,2|
3,5,2.5|
3,6,9.4|
3,7,9.4|
4,0,9.4|
4,1,3.2|
4,2,9.6|
4,3,1.5|
4,4,3.5|
4,5,0.58|
4,6,0.11|
4,7,0.21|
5,0,6.2|
5,1,7.5|
5,2,1.3|
5,3,3.3|
5,4,8.6|
5,5,7.9|
5,6,9.4|
5,7,8.3|
6,0,2.7|
6,1,6.3|
6,2,9.5|
6,3,4.5|
6,4,1.1|
6,5,7.9|
6,6,1.4|
6,7,0.65|
7,0,5|
7,1,3.4|
7,2,7.5|
7,3,1.6|
7,4,5.1|
7,5,5.7|
7,6,5.5|
7,7,7.1|
];
constraint_x10_x6=[
0,0,3.1|
0,1,7.9|
0,2,0.96|
0,3,1.3|
0,4,1|
0,5,7.9|
0,6,6|
0,7,4.3|
1,0,0.7|
1,1,0.012|
1,2,5|
1,3,1.5|
1,4,1.6|
1,5,1.2|
1,6,6.5|
1,7,3.2|
2,0,5.3|
2,1,3.2|
2,2,6|
2,3,7.2|
2,4,0.72|
2,5,2.4|
2,6,9|
2,7,1.3|
3,0,4.8|
3,1,8.3|
3,2,9.8|
3,3,9.8|
3,4,9.1|
3,5,9.6|
3,6,0.82|
3,7,3.1|
4,0,0.57|
4,1,0.52|
4,2,3.8|
4,3,2.6|
4,4,0.52|
4,5,8.7|
4,6,1.3|
4,7,4.9|
5,0,0.28|
5,1,8.6|
5,2,8.6|
5,3,9.4|
5,4,8.2|
5,5,8.1|
5,6,3.9|
5,7,3.3|
6,0,4.7|
6,1,9.4|
6,2,0.056|
6,3,0.012|
6,4,0.24|
6,5,8.5|
6,6,0.36|
6,7,6.3|
7,0,4.6|
7,1,0.15|
7,2,4.5|
7,3,4.4|
7,4,4.8|
7,5,5.8|
7,6,9.9|
7,7,4.3|
];
constraint_x10_x9=[
0,0,9.4|
0,1,9.3|
0,2,1.8|
0,3,8.8|
0,4,0.96|
0,5,9.9|
0,6,6.5|
0,7,7.3|
1,0,5.5|
1,1,1.3|
1,2,3|
1,3,7.1|
1,4,0.93|
1,5,4.8|
1,6,7.7|
1,7,7.8|
2,0,0.47|
2,1,1.1|
2,2,7.4|
2,3,3|
2,4,0.82|
2,5,3.6|
2,6,5.3|
2,7,5.5|
3,0,2.2|
3,1,8.2|
3,2,4|
3,3,4.5|
3,4,0.65|
3,5,5.5|
3,6,5.9|
3,7,9.6|
4,0,4.1|
4,1,9.8|
4,2,7.6|
4,3,3.8|
4,4,5.8|
4,5,6.4|
4,6,1.1|
4,7,5.9|
5,0,2.3|
5,1,6.9|
5,2,8.9|
5,3,9.3|
5,4,2.9|
5,5,9.2|
5,6,4.3|
5,7,5|
6,0,3.9|
6,1,8.5|
6,2,5.6|
6,3,7.2|
6,4,1.6|
6,5,4.6|
6,6,3.1|
6,7,6.3|
7,0,8.9|
7,1,7|
7,2,8.3|
7,3,1.8|
7,4,5.4|
7,5,9.7|
7,6,7.3|
7,7,9.1|
];
constraint_x11_x7=[
0,0,4.3|
0,1,9.4|
0,2,4.8|
0,3,9.2|
0,4,0.6|
0,5,6.8|
0,6,3.9|
0,7,9.9|
1,0,6.9|
1,1,1.3|
1,2,3.2|
1,3,1.6|
1,4,7|
1,5,7.4|
1,6,8.3|
1,7,0.71|
2,0,7.9|
2,1,0.22|
2,2,7.5|
2,3,8.4|
2,4,4.1|
2,5,2.6|
2,6,6|
2,7,2.5|
3,0,2.7|
3,1,7.7|
3,2,6.1|
3,3,9.8|
3,4,8.2|
3,5,2.9|
3,6,4.9|
3,7,5.2|
4,0,3.8|
4,1,6.5|
4,2,9.8|
4,3,5.1|
4,4,0.91|
4,5,3.5|
4,6,1.8|
4,7,5.5|
5,0,9.9|
5,1,8.1|
5,2,3.9|
5,3,6.6|
5,4,3.6|
5,5,3|
5,6,4.3|
5,7,8.4|
6,0,4.8|
6,1,5.4|
6,2,6.4|
6,3,4.6|
6,4,4.8|
6,5,9.1|
6,6,6.6|
6,7,3.1|
7,0,4.3|
7,1,6.8|
7,2,4.7|
7,3,6.2|
7,4,2.4|
7,5,9.6|
7,6,2.3|
7,7,8.4|
];
constraint_x11_x10=[
0,0,5|
0,1,9.2|
0,2,8.1|
0,3,8.3|
0,4,4|
0,5,6.5|
0,6,6.1|
0,7,0.77|
1,0,9.6|
1,1,4.2|
1,2,3.9|
1,3,8.2|
1,4,7|
1,5,5.8|
1,6,7.7|
1,7,4.1|
2,0,4.2|
2,1,1.6|
2,2,1.5|
2,3,8.7|
2,4,9.8|
2,5,5.5|
2,6,2.4|
2,7,6.1|
3,0,1.8|
3,1,2.7|
3,2,3.2|
3,3,3.7|
3,4,2.2|
3,5,2.6|
3,6,9.4|
3,7,2.7|
4,0,0.95|
4,1,0.77|
4,2,7|
4,3,6.2|
4,4,1.5|
4,5,3.1|
4,6,0.24|
4,7,9.5|
5,0,0.45|
5,1,0.23|
5,2,10|
5,3,7.6|
5,4,4.6|
5,5,9.9|
5,6,0.85|
5,7,2.7|
6,0,6|
6,1,1.3|
6,2,4|
6,3,0.64|
6,4,4.5|
6,5,0.94|
6,6,6.2|
6,7,9|
7,0,6.3|
7,1,4.9|
7,2,6.8|
7,3,1.8|
7,4,0.68|
7,5,7.9|
7,6,9.3|
7,7,2.7|
];
constraint_x12_x8=[
0,0,1.9|
0,1,8.8|
0,2,1.4|
0,3,1.4|
0,4,1.5|
0,5,0.59|
0,6,0.75|
0,7,6.4|
1,0,3.8|
1,1,4.4|
1,2,2.5|
1,3,8.9|
1,4,8.8|
1,5,1.1|
1,6,7.7|
1,7,7.3|
2,0,7|
2,1,6.4|
2,2,3.9|
2,3,1.6|
2,4,7.4|
2,5,0.85|
2,6,3.1|
2,7,2.2|
3,0,9.7|
3,1,0.51|
3,2,7.9|
3,3,6.2|
3,4,3.6|
3,5,3.4|
3,6,7.7|
3,7,2.5|
4,0,4.5|
4,1,2.3|
4,2,4.7|
4,3,4.4|
4,4,7.1|
4,5,0.2|
4,6,1.1|
4,7,3|
5,0,9.7|
5,1,6.1|
5,2,4.3|
5,3,6.6|
5,4,1.3|
5,5,3|
5,6,7|
5,7,3.2|
6,0,1.2|
6,1,5.2|
6,2,4.3|
6,3,6|
6,4,6.2|
6,5,5.5|
6,6,4.9|
6,7,7.8|
7,0,2.4|
7,1,0.23|
7,2,8.7|
7,3,6|
7,4,9.5|
7,5,5.8|
7,6,8.4|
7,7,9.1|
];
constraint_x12_x11=[
0,0,4.2|
0,1,7.1|
0,2,1.8|
0,3,4.6|
0,4,4.7|
0,5,8.1|
0,6,4.6|
0,7,4.1|
1,0,7.3|
1,1,1.8|
1,2,0.95|
1,3,0.66|
1,4,9.5|
1,5,4.2|
1,6,6.5|
1,7,4.2|
2,0,7.6|
2,1,4.1|
2,2,0.84|
2,3,8.3|
2,4,5.7|
2,5,9.3|
2,6,5.1|
2,7,8.8|
3,0,7.4|
3,1,5.4|
3,2,9.8|
3,3,3.6|
3,4,1.3|
3,5,4.7|
3,6,5.1|
3,7,2.8|
4,0,8.2|
4,1,6.8|
4,2,8.1|
4,3,2|
4,4,3.4|
4,5,6.7|
4,6,5.2|
4,7,3.5|
5,0,4|
5,1,9.4|
5,2,0.063|
5,3,9.3|
5,4,9.6|
5,5,8.8|
5,6,7.7|
5,7,1.9|
6,0,0.064|
6,1,8.1|
6,2,2.2|
6,3,7.5|
6,4,5.3|
6,5,4.5|
6,6,8.1|
6,7,7.6|
7,0,1.8|
7,1,6.8|
7,2,5.7|
7,3,0.55|
7,4,3.6|
7,5,9.8|
7,6,9.4|
7,7,2.4|
];
constraint_x13_x9=[
0,0,5.8|
0,1,1.8|
0,2,8.2|
0,3,8.9|
0,4,0.05|
0,5,4.4|
0,6,2.8|
0,7,1.1|
1,0,3.6|
1,1,7.1|
1,2,2.9|
1,3,4|
1,4,1.1|
1,5,3.7|
1,6,7.1|
1,7,3.6|
2,0,8|
2,1,5.8|
2,2,5.3|
2,3,5.1|
2,4,5.1|
2,5,9.3|
2,6,7.8|
2,7,0.65|
3,0,9.4|
3,1,3.6|
3,2,5.4|
3,3,2|
3,4,4.8|
3,5,7.6|
3,6,2.3|
3,7,2|
4,0,5.1|
4,1,9.2|
4,2,9.6|
4,3,6.9|
4,4,7.6|
4,5,1.7|
4,6,6.3|
4,7,1.8|
5,0,7.6|
5,1,2.3|
5,2,9.9|
5,3,6.1|
5,4,4.1|
5,5,1.3|
5,6,7.1|
5,7,4.6|
6,0,8.2|
6,1,7.2|
6,2,6.6|
6,3,8.4|
6,4,2.3|
6,5,9.6|
6,6,6.1|
6,7,0.89|
7,0,8.6|
7,1,6.2|
7,2,3.3|
7,3,5.7|
7,4,4.2|
7,5,0.69|
7,6,5.9|
7,7,6.5|
];
constraint_x14_x10=[
0,0,2|
0,1,7.1|
0,2,2.8|
0,3,2.9|
0,4,7.3|
0,5,8.1|
0,6,0.7|
0,7,6.8|
1,0,3.1|
1,1,8.2|
1,2,0.81|
1,3,1.8|
1,4,9.2|
1,5,5.5|
1,6,7.8|
1,7,4.1|
2,0,5.5|
2,1,7.6|
2,2,0.27|
2,3,6.9|
2,4,6.9|
2,5,8.5|
2,6,4.5|
2,7,8|
3,0,7.4|
3,1,0.5|
3,2,2.9|
3,3,3.1|
3,4,8|
3,5,3.5|
3,6,5.9|
3,7,6.1|
4,0,2.2|
4,1,2.1|
4,2,6.5|
4,3,3|
4,4,7.1|
4,5,8.7|
4,6,0.21|
4,7,4.9|
5,0,3|
5,1,3|
5,2,1.5|
5,3,3.9|
5,4,3|
5,5,9.7|
5,6,6.5|
5,7,6|
6,0,7.4|
6,1,9|
6,2,1.4|
6,3,8|
6,4,7.7|
6,5,6.5|
6,6,9.5|
6,7,8.9|
7,0,1.8|
7,1,4.7|
7,2,2.6|
7,3,9.2|
7,4,7.8|
7,5,6.2|
7,6,9.6|
7,7,5.6|
];
constraint_x1_y1=[
0,0,4.5|
0,1,6.3|
0,2,4.8|
0,3,1.8|
0,4,5.3|
0,5,9.5|
0,6,1.6|
0,7,7.3|
1,0,3.4|
1,1,5|
1,2,5.2|
1,3,1.2|
1,4,8.7|
1,5,7.9|
1,6,8.8|
1,7,5.4|
2,0,4.8|
2,1,3.6|
2,2,0.3|
2,3,3.6|
2,4,1.2|
2,5,7.2|
2,6,2.4|
2,7,5.3|
3,0,1.7|
3,1,9.8|
3,2,9|
3,3,5.6|
3,4,9|
3,5,5.2|
3,6,8.7|
3,7,4.9|
4,0,1.7|
4,1,9.2|
4,2,1.3|
4,3,5.5|
4,4,0.67|
4,5,5.7|
4,6,8.4|
4,7,9|
5,0,3.8|
5,1,4.9|
5,2,2.6|
5,3,0.86|
5,4,8.9|
5,5,7.3|
5,6,2|
5,7,0.012|
6,0,5.2|
6,1,6.3|
6,2,5.2|
6,3,8.5|
6,4,5.6|
6,5,4.4|
6,6,5.6|
6,7,8.5|
7,0,5.5|
7,1,4|
7,2,4|
7,3,4.9|
7,4,1.7|
7,5,0.064|
7,6,3.6|
7,7,7.1|
];
constraint_x2_y2=[
0,0,7.4|
0,1,3.8|
0,2,3.2|
0,3,2.9|
0,4,6.5|
0,5,1.9|
0,6,2.2|
0,7,1|
1,0,3.7|
1,1,7.5|
1,2,6.2|
1,3,3.6|
1,4,0.84|
1,5,1.8|
1,6,6|
1,7,2.7|
2,0,5|
2,1,1.6|
2,2,4.3|
2,3,2.5|
2,4,4.4|
2,5,0.12|
2,6,1.7|
2,7,5.5|
3,0,7.9|
3,1,1.2|
3,2,0.62|
3,3,0.85|
3,4,0.53|
3,5,9.2|
3,6,5.4|
3,7,5.4|
4,0,3.2|
4,1,8|
4,2,8.2|
4,3,7.5|
4,4,8.7|
4,5,5.3|
4,6,5.8|
4,7,2.7|
5,0,5.3|
5,1,9.7|
5,2,9.7|
5,3,0.26|
5,4,3.3|
5,5,8.2|
5,6,3.3|
5,7,8.9|
6,0,1.4|
6,1,5.6|
6,2,6.4|
6,3,1.3|
6,4,4.1|
6,5,4.7|
6,6,6.4|
6,7,2.8|
7,0,8.7|
7,1,3.4|
7,2,0.27|
7,3,6|
7,4,5.8|
7,5,0.019|
7,6,6.2|
7,7,5.2|
];
constraint_x3_y3=[
0,0,0.43|
0,1,0.079|
0,2,1.6|
0,3,3.2|
0,4,6.3|
0,5,4.1|
0,6,3.4|
0,7,8.8|
1,0,2.2|
1,1,4.2|
1,2,7.7|
1,3,7.7|
1,4,3.8|
1,5,1.6|
1,6,2.3|
1,7,7.8|
2,0,8.6|
2,1,4.5|
2,2,6.1|
2,3,2.7|
2,4,7.6|
2,5,8.1|
2,6,2.8|
2,7,3.8|
3,0,5.8|
3,1,5.5|
3,2,1.8|
3,3,4.2|
3,4,2.4|
3,5,6.2|
3,6,6.7|
3,7,3.1|
4,0,1.5|
4,1,7.7|
4,2,9.5|
4,3,2.1|
4,4,6.2|
4,5,2.2|
4,6,6.2|
4,7,2.4|
5,0,6|
5,1,6.2|
5,2,5.8|
5,3,10|
5,4,7.7|
5,5,7.8|
5,6,9.3|
5,7,8.1|
6,0,6.4|
6,1,4.5|
6,2,8.7|
6,3,2.5|
6,4,8.4|
6,5,4.6|
6,6,0.5|
6,7,9|
7,0,6|
7,1,6.2|
7,2,3.4|
7,3,6.3|
7,4,0.15|
7,5,3.7|
7,6,6.5|
7,7,5.9|
];
constraint_x4_y4=[
0,0,6.7|
0,1,9.4|
0,2,1.7|
0,3,5.9|
0,4,1.3|
0,5,0.61|
0,6,9.7|
0,7,9.3|
1,0,4.5|
1,1,4.6|
1,2,8.1|
1,3,7.5|
1,4,3.3|
1,5,2.7|
1,6,4.5|
1,7,5.7|
2,0,0.18|
2,1,3.5|
2,2,6.8|
2,3,7.7|
2,4,4.8|
2,5,7.2|
2,6,6.3|
2,7,6|
3,0,9.4|
3,1,6.9|
3,2,3.9|
3,3,9.1|
3,4,2.8|
3,5,8.7|
3,6,4.7|
3,7,7.4|
4,0,6.4|
4,1,8.7|
4,2,4.9|
4,3,9.5|
4,4,8.4|
4,5,5.9|
4,6,7|
4,7,3.2|
5,0,2.4|
5,1,9.2|
5,2,4|
5,3,9.9|
5,4,8.7|
5,5,1.2|
5,6,9.4|
5,7,7.9|
6,0,4.6|
6,1,7|
6,2,6.7|
6,3,9.7|
6,4,8.4|
6,5,4.8|
6,6,2.7|
6,7,8.2|
7,0,7.4|
7,1,0.038|
7,2,9.9|
7,3,3.1|
7,4,3.8|
7,5,2.3|
7,6,5.5|
7,7,1.3|
];
constraint_x5_y5=[
0,0,0.99|
0,1,6.3|
0,2,7.6|
0,3,9.5|
0,4,7.6|
0,5,3.5|
0,6,7.4|
0,7,3.6|
1,0,9.6|
1,1,4|
1,2,4|
1,3,7.9|
1,4,4.2|
1,5,8.3|
1,6,7|
1,7,7|
2,0,6.8|
2,1,8.2|
2,2,2.5|
2,3,3.3|
2,4,5.1|
2,5,6.6|
2,6,1.7|
2,7,6.7|
3,0,7.3|
3,1,0.58|
3,2,4.3|
3,3,5.5|
3,4,2.6|
3,5,2.6|
3,6,8.6|
3,7,5.3|
4,0,6.9|
4,1,6.5|
4,2,8.7|
4,3,2.2|
4,4,6.7|
4,5,7|
4,6,4.3|
4,7,1.4|
5,0,2.4|
5,1,0.52|
5,2,2.9|
5,3,9.5|
5,4,6.8|
5,5,4.2|
5,6,0.21|
5,7,1.2|
6,0,0.17|
6,1,8.4|
6,2,8.6|
6,3,4|
6,4,8.4|
6,5,1.9|
6,6,1.3|
6,7,9|
7,0,3|
7,1,3.5|
7,2,1.6|
7,3,8.8|
7,4,4.4|
7,5,1.4|
7,6,4.3|
7,7,2.1|
];
constraint_x6_y6=[
0,0,10|
0,1,6.3|
0,2,8.9|
0,3,2.8|
0,4,2|
0,5,7.1|
0,6,6.9|
0,7,5.4|
1,0,2.4|
1,1,6|
1,2,4.6|
1,3,9.1|
1,4,3.3|
1,5,0.024|
1,6,6.8|
1,7,6.4|
2,0,9.5|
2,1,3.5|
2,2,7.7|
2,3,9.4|
2,4,9.5|
2,5,7.2|
2,6,7.8|
2,7,5|
3,0,8.5|
3,1,0.72|
3,2,1|
3,3,0.16|
3,4,6.5|
3,5,3.6|
3,6,2.6|
3,7,5.5|
4,0,6.9|
4,1,7|
4,2,0.015|
4,3,4.3|
4,4,9.2|
4,5,8.2|
4,6,2.8|
4,7,3.1|
5,0,5.1|
5,1,4|
5,2,7.2|
5,3,5.5|
5,4,8.3|
5,5,1|
5,6,0.24|
5,7,8|
6,0,8|
6,1,6.5|
6,2,2.6|
6,3,3.5|
6,4,9.3|
6,5,6.7|
6,6,4.5|
6,7,2.5|
7,0,4.8|
7,1,9.4|
7,2,7.5|
7,3,4.1|
7,4,8.4|
7,5,8.6|
7,6,9.2|
7,7,0.079|
];
initial_distribution_y1=[0.017,0.17,0.063,0.1,0.045,0.21,0.19,0.21];
initial_distribution_y2=[0.11,0.047,0.2,0.15,0.16,0.19,0.032,0.11];
initial_distribution_y3=[0.11,0.16,0.22,0.023,0.12,0.025,0.14,0.2];
initial_distribution_y4=[0.25,0.016,0.013,0.036,0.13,0.4,0.08,0.075];
initial_distribution_y5=[0.22,0.18,0.079,0.073,0.21,0.12,0.027,0.097];
initial_distribution_y6=[0.081,0.073,0.18,0.2,0.15,0.18,0.052,0.082];
transition_y1=[
0.0081,0.077,0.11,0.17,0.12,0.22,0.086,0.21|
0.052,0.17,0.16,0.061,0.18,0.15,0.029,0.2|
0.083,0.16,0.15,0.11,0.16,0.034,0.17,0.13|
0.098,0.15,0.045,0.13,0.18,0.14,0.15,0.12|
0.13,0.14,0.063,0.19,0.18,0.081,0.16,0.046|
0.12,0.18,0.16,0.093,0.02,0.23,0.16,0.032|
0.16,0.03,0.16,0.17,0.044,0.19,0.15,0.094|
0.14,0.15,0.12,0.01,0.16,0.2,0.2,0.027|
];
transition_y2=[
0.11,0.023,0.074,0.14,0.15,0.12,0.19,0.19|
0.034,0.096,0.094,0.23,0.011,0.18,0.12,0.23|
0.21,0.17,0.079,0.16,0.073,0.043,0.12,0.14|
0.11,0.16,0.0034,0.21,0.18,0.16,0.16,0.0092|
0.23,0.019,0.026,0.21,0.15,0.065,0.053,0.25|
0.21,0.048,0.16,0.16,0.15,0.041,0.17,0.061|
0.24,0.095,0.14,0.15,0.015,0.16,0.18,0.014|
0.14,0.2,0.066,0.11,0.02,0.19,0.028,0.24|
];
transition_y3=[
0.071,0.21,0.071,0.11,0.18,0.12,0.14,0.087|
0.19,0.062,0.18,0.055,0.13,0.11,0.085,0.19|
0.036,0.17,0.15,0.097,0.2,0.1,0.18,0.071|
0.017,0.13,0.027,0.23,0.17,0.18,0.098,0.15|
0.062,0.22,0.17,0.15,0.093,0.14,0.12,0.037|
0.069,0.13,0.076,0.011,0.17,0.19,0.19,0.17|
0.02,0.2,0.13,0.061,0.09,0.19,0.21,0.1|
0.098,0.13,0.16,0.14,0.059,0.22,0.16,0.021|
];
transition_y4=[
0.046,0.063,0.22,0.14,0.012,0.28,0.037,0.2|
0.078,0.13,0.17,0.056,0.049,0.15,0.19,0.18|
0.2,0.089,0.065,0.11,0.073,0.21,0.13,0.13|
0.18,0.12,0.14,0.13,0.092,0.063,0.18,0.091|
0.15,0.14,0.16,0.095,0.093,0.053,0.026,0.28|
0.08,0.016,0.2,0.13,0.2,0.0051,0.19,0.17|
0.13,0.095,0.22,0.014,0.24,0.084,0.11,0.11|
0.16,0.014,0.0083,0.22,0.064,0.15,0.15,0.23|
];
transition_y5=[
0.11,0.24,0.0033,0.14,0.15,0.016,0.25,0.093|
0.039,0.092,0.16,0.24,0.15,0.11,0.13,0.087|
0.19,0.023,0.05,0.26,0.0095,0.054,0.19,0.22|
0.14,0.15,0.14,0.14,0.17,0.13,0.11,0.014|
0.24,0.094,0.17,0.23,0.11,0.041,0.097,0.015|
0.13,0.07,0.18,0.077,0.18,0.045,0.18,0.14|
0.14,0.018,0.14,0.039,0.3,0.05,0.15,0.17|
0.027,0.14,0.22,0.0084,0.26,0.032,0.22,0.1|
];
transition_y6=[
0.2,0.025,0.14,0.038,0.15,0.17,0.14,0.14|
0.063,0.15,0.13,0.23,0.082,0.12,0.096,0.13|
0.097,0.2,0.0063,0.18,0.23,0.086,0.19,0.013|
0.091,0.17,0.098,0.061,0.22,0.13,0.023,0.2|
0.044,0.19,0.038,0.019,0.15,0.096,0.38,0.08|
0.17,0.12,0.12,0.18,0.08,0.027,0.13,0.17|
0.36,0.076,0.19,0.14,0.12,0.031,0.036,0.04|
0.21,0.22,0.18,0.014,0.072,0.087,0.11,0.12|
];
